HUN,8,6,425
3,3,1,16,5,8,4,25,2,13,0,13
2,11,3,12,0,8,5,1,4,4,1,5
4,9,0,28,3,6,1,10,2,12,5,10
3,2,1,14,2,8,5,9,4,6,0,13
4,7,2,11,1,3,3,28,5,7,0,27
4,2,5,13,1,29,3,21,2,2,0,4
1,27,4,28,5,22,3,28,0,28,2,12
4,2,1,7,2,2,0,21,5,3,3,1
